1709.77
0 1 2 3 4 5 6 7 8 9 10 11 12 13 14 15 20 0
0 16 17 18 19 21 22 23 24 25 26 27 28 29 30 31 32 33 34 35 36 47 0
0 37 38 39 40 41 42 43 44 45 46 48 49 50 51 52 79 0
0 53 54 55 56 57 58 59 60 61 62 63 64 65 66 67 88 0
0 68 69 70 71 72 73 74 75 76 77 78 80 81 82 83 0
0 84 85 86 87 89 90 91 92 93 94 95 96 97 98 99 100 101 106 0
0 102 103 104 105 107 108 109 110 111 112 113 114 115 116 117 118 119 120 0
